180
1000
697
688
687
682
680
677
676
673
671
664
663
661
650
646
644
636
630
626
624
616
608
608
607
606
601
599
593
585
584
579
578
578
573
572
570
566
566
565
555
552
543
543
540
535
532
532
530
528
525
517
516
514
512
511
509
508
506
499
498
491
489
481
475
474
470
465
464
455
454
453
444
443
439
439
432
428
425
423
421
420
420
414
410
409
407
405
400
400
398
395
393
390
379
372
368
364
361
357
356
346
343
341
339
334
328
326
325
323
321
310
310
308
306
304
301
299
292
288
288
281
275
274
272
270
270
267
264
253
228
226
222
222
211
203
202
202
202
198
198
189
189
183
180
178
177
172
170
168
155
153
152
145
139
137
135
118
116
113
106
105
105
98
88
77
76
76
76
67
63
60
50
46
46
45
44
38
27
16
14
9
